RT is False
Default write of storage_offers_DA.csv just to have a file (but constraint should be inactive)
Reading model...
...model read.
creating competitive generators file...
...competitive generators recorded.
Loading data...
.. day-ahead data with real-time VRE data read.
Compiling instance...
...instance created.
Creating Offer Mitigation (model will solve as dispatch if TRUE)...
Solving...

Welcome to IBM(R) ILOG(R) CPLEX(R) Interactive Optimizer 12.9.0.0
  with Simplex, Mixed Integer & Barrier Optimizers
5725-A06 5725-A29 5724-Y48 5724-Y49 5724-Y54 5724-Y55 5655-Y21
Copyright IBM Corp. 1988, 2019.  All Rights Reserved.

Type 'help' for a list of available commands.
Type 'help' followed by a command name for more
information on commands.

CPLEX> Logfile 'cplex.log' closed.
Logfile 'C:\Users\llavin\Desktop\test919\logs\tmps9r17tnj.cplex.log' open.
CPLEX> New value for parallel optimization mode: -1
CPLEX> New value for mixed integer optimality gap tolerance: 0.01
CPLEX> New value for integrality tolerance: 1e-09
CPLEX> New value for feasibility tolerance: 0.01
CPLEX> New value for deterministic time limit in ticks: 75000
CPLEX> Problem 'C:\Users\llavin\Desktop\test919\logs\tmpabvqyj1w.pyomo.lp' read.
Read time = 0.05 sec. (3.04 ticks)
CPLEX> Problem name         : C:\Users\llavin\Desktop\test919\logs\tmpabvqyj1w.pyomo.lp
Objective sense      : Minimize
Variables            :   26081  [Nneg: 1,  Box: 21616,  Free: 4464]
Objective nonzeros   :    2496
Linear constraints   :   27515  [Less: 14006,  Greater: 4416,  Equal: 9093]
  Nonzeros           :   89267
  RHS nonzeros       :   12271

Variables            : Min LB: -5000.000        Max UB: 1000000.       
Objective nonzeros   : Min   : 15.73158         Max   : 124.0997       
Linear constraints   :
  Nonzeros           : Min   : 0.8500000        Max   : 3000.000       
  RHS nonzeros       : Min   : 0.2250000        Max   : 5000.000       
CPLEX> CPXPARAM_Parallel                                -1
CPXPARAM_Simplex_Tolerances_Feasibility          0.01
CPXPARAM_DetTimeLimit                            75000
CPXPARAM_MIP_Tolerances_MIPGap                   0.01
CPXPARAM_MIP_Tolerances_Integrality              1.0000000000000001e-09
Parallel mode: opportunistic, using up to 32 threads for concurrent optimization.
Tried aggregator 1 time.
LP Presolve eliminated 21353 rows and 15463 columns.
Aggregator did 773 substitutions.
Reduced LP has 5389 rows, 9845 columns, and 31806 nonzeros.
Presolve time = 0.05 sec. (30.45 ticks)
Symmetry aggregator did 5563 additional substitutions.

Iteration log . . .
Iteration:     1   Dual objective     =             0.000000
Perturbation started.
Iteration:   101   Dual objective     =             0.000000
Iteration:   335   Dual objective     =             1.229895
Iteration:   593   Dual objective     =             1.753815
Iteration:   850   Dual objective     =             1.891125
Iteration:  1061   Dual objective     =             2.008253
Iteration:  1334   Dual objective     =             2.055121
Iteration:  1581   Dual objective     =             2.083143
Iteration:  1797   Dual objective     =        160695.486570
Iteration:  2002   Dual objective     =        377573.055693
Iteration:  2204   Dual objective     =        422468.654985
Iteration:  2418   Dual objective     =        422877.196779
Iteration:  2676   Dual objective     =        423403.275829
Iteration:  3096   Dual objective     =        423443.033953
Removing perturbation.
Dual superbasis not built.
Using devex.

Primal simplex solved model.


Primal simplex - Optimal:  Objective =  4.2344086235e+05
Solution time =    0.17 sec.  Iterations = 1666 (1040)
Deterministic time = 82.34 ticks  (478.70 ticks/sec)

CPLEX> Solution written to file 'C:\Users\llavin\Desktop\test919\logs\tmp9xwu0ol3.cplex.sol'.
CPLEX> Exporting results... 
...storage offer mitigation file created
Converting model to MPEC...
...converted
NOTE: initial MIP solve with only storage competitive to get feasible solution
Solving...

Welcome to IBM(R) ILOG(R) CPLEX(R) Interactive Optimizer 12.9.0.0
  with Simplex, Mixed Integer & Barrier Optimizers
5725-A06 5725-A29 5724-Y48 5724-Y49 5724-Y54 5724-Y55 5655-Y21
Copyright IBM Corp. 1988, 2019.  All Rights Reserved.

Type 'help' for a list of available commands.
Type 'help' followed by a command name for more
information on commands.

CPLEX> Logfile 'cplex.log' closed.
Logfile 'C:\Users\llavin\Desktop\test919\logs\tmpneniwgje.cplex.log' open.
CPLEX> New value for parallel optimization mode: -1
CPLEX> New value for mixed integer optimality gap tolerance: 0.01
CPLEX> New value for integrality tolerance: 1e-09
CPLEX> New value for feasibility tolerance: 0.01
CPLEX> New value for deterministic time limit in ticks: 75000
CPLEX> Problem 'C:\Users\llavin\Desktop\test919\logs\tmpv9ofaoex.pyomo.lp' read.
Read time = 0.25 sec. (14.78 ticks)
CPLEX> Problem name         : C:\Users\llavin\Desktop\test919\logs\tmpv9ofaoex.pyomo.lp
Objective sense      : Maximize
Variables            :   53805  [Nneg: 1,  Box: 22000,  Free: 4464,
                                 Binary: 27340]
Objective nonzeros   :    8980
Linear constraints   :  123205  [Less: 41346,  Greater: 59096,  Equal: 22763]
  Nonzeros           :  291801
  RHS nonzeros       :   67461

Variables            : Min LB: -5000.000        Max UB: 1000000.       
Objective nonzeros   : Min   : 0.2250000        Max   : 722.0000       
Linear constraints   :
  Nonzeros           : Min   : 0.2250000        Max   : 1000000.       
  RHS nonzeros       : Min   : 0.2250000        Max   : 1000000.       
CPLEX> CPXPARAM_Parallel                                -1
CPXPARAM_Simplex_Tolerances_Feasibility          0.01
CPXPARAM_DetTimeLimit                            75000
CPXPARAM_MIP_Tolerances_MIPGap                   0.01
CPXPARAM_MIP_Tolerances_Integrality              1.0000000000000001e-09
Tried aggregator 3 times.
MIP Presolve eliminated 88637 rows and 18937 columns.
MIP Presolve added 3369 rows and 0 columns.
MIP Presolve modified 24854 coefficients.
Aggregator did 12967 substitutions.
Reduced MIP has 24970 rows, 21345 columns, and 71246 nonzeros.
Reduced MIP has 8412 binaries, 0 generals, 0 SOSs, and 0 indicators.
Presolve time = 0.30 sec. (173.55 ticks)
Probing fixed 378 vars, tightened 2823 bounds.
Probing time = 1.22 sec. (888.31 ticks)
Tried aggregator 2 times.
MIP Presolve eliminated 858 rows and 759 columns.
MIP Presolve modified 2192 coefficients.
Aggregator did 36 substitutions.
Reduced MIP has 24076 rows, 20550 columns, and 68653 nonzeros.
Reduced MIP has 8033 binaries, 0 generals, 0 SOSs, and 0 indicators.
Presolve time = 0.11 sec. (68.89 ticks)
Probing fixed 4 vars, tightened 8 bounds.
Probing time = 0.17 sec. (118.80 ticks)
Clique table members: 8889.
MIP emphasis: balance optimality and feasibility.
MIP search method: dynamic search.
Parallel mode: opportunistic, using up to 32 threads.
Root relaxation solution time = 0.42 sec. (310.11 ticks)

        Nodes                                         Cuts/
   Node  Left     Objective  IInf  Best Integer    Best Bound    ItCnt     Gap

      0     0     8058.7200  1863                   8058.7200     6785         
      0     0     8058.7200   659                   Cuts: 862     7262         
      0     0     8058.7200   515                   Cuts: 575     7587         
      0     0     8058.6351   403                   Cuts: 347     7746         
      0     0     8058.5926   335                   Cuts: 159     7820         
      0     0     8058.5926   310                    Cuts: 97     7870         
      0     0     8058.5926   281                    Cuts: 72     7897         
      0     0     8058.5926   270                    Cuts: 55     7911         
      0     0     8058.5926   259                    Cuts: 37     7920         
      0     0     8058.5926   257                    Cuts: 29     7923         
      0     3     8058.0792    11                   8058.0792     7925         
Elapsed time = 10.06 sec. (6011.08 ticks, tree = 0.02 MB, solutions = 0)
*   306    55      integral     0     5179.7905     8057.0524     8607   55.55%
*   808   168      integral     0     8057.0524     8057.0524    11510    0.00%

Clique cuts applied:  25
Cover cuts applied:  1
Implied bound cuts applied:  44
Flow cuts applied:  432
Mixed integer rounding cuts applied:  23
Gomory fractional cuts applied:  34

Root node processing (before b&c):
  Real time             =    8.98 sec. (5993.97 ticks)
Parallel b&c, 32 threads:
  Real time             =    3.38 sec. (515.33 ticks)
  Sync time (average)   =    0.59 sec.
  Wait time (average)   =    0.00 sec.
                          ------------
Total (root+branch&cut) =   12.36 sec. (6509.30 ticks)

Solution pool: 2 solutions saved.

MIP - Integer optimal solution:  Objective =  8.0570523922e+03
Solution time =   12.39 sec.  Iterations = 12421  Nodes = 910
Deterministic time = 6509.46 ticks  (525.34 ticks/sec)

CPLEX> Incumbent solution written to file 'C:\Users\llavin\Desktop\test919\logs\tmp_66s5_y0.cplex.sol'.
CPLEX> NOTE: no warmstart specified for MIP iteration, default behavior is true
NOTE: resolving with all competitive generators using storage-only solution to warmstart
Solving...

Welcome to IBM(R) ILOG(R) CPLEX(R) Interactive Optimizer 12.9.0.0
  with Simplex, Mixed Integer & Barrier Optimizers
5725-A06 5725-A29 5724-Y48 5724-Y49 5724-Y54 5724-Y55 5655-Y21
Copyright IBM Corp. 1988, 2019.  All Rights Reserved.

Type 'help' for a list of available commands.
Type 'help' followed by a command name for more
information on commands.

CPLEX> Logfile 'cplex.log' closed.
Logfile 'C:\Users\llavin\Desktop\test919\logs\tmpjpmlkplt.cplex.log' open.
CPLEX> New value for parallel optimization mode: -1
CPLEX> New value for mixed integer optimality gap tolerance: 0.01
CPLEX> New value for integrality tolerance: 1e-09
CPLEX> New value for feasibility tolerance: 0.01
CPLEX> New value for deterministic time limit in ticks: 75000
CPLEX> Problem 'C:\Users\llavin\Desktop\test919\logs\tmpkl5n_0k2.pyomo.lp' read.
Read time = 0.25 sec. (14.81 ticks)
CPLEX> MIP start file 'C:\Users\llavin\Desktop\test919\logs\tmpyymu7yng.cplex.mst' read.
CPLEX> Problem name         : C:\Users\llavin\Desktop\test919\logs\tmpkl5n_0k2.pyomo.lp
Objective sense      : Maximize
Variables            :   54525  [Nneg: 1,  Box: 22720,  Free: 4464,
                                 Binary: 27340]
Objective nonzeros   :    9676
Linear constraints   :  123205  [Less: 41346,  Greater: 59096,  Equal: 22763]
  Nonzeros           :  291801
  RHS nonzeros       :   67461

Variables            : Min LB: -5000.000        Max UB: 1000000.       
Objective nonzeros   : Min   : 0.2250000        Max   : 722.0000       
Linear constraints   :
  Nonzeros           : Min   : 0.2250000        Max   : 1000000.       
  RHS nonzeros       : Min   : 0.2250000        Max   : 1000000.       
CPLEX> CPXPARAM_Parallel                                -1
CPXPARAM_Simplex_Tolerances_Feasibility          0.01
CPXPARAM_DetTimeLimit                            75000
CPXPARAM_MIP_Tolerances_MIPGap                   0.01
CPXPARAM_MIP_Tolerances_Integrality              1.0000000000000001e-09
Warning:  No solution found from 1 MIP starts.
Retaining values of one MIP start for possible repair.
Tried aggregator 3 times.
MIP Presolve eliminated 88637 rows and 19657 columns.
MIP Presolve added 3369 rows and 0 columns.
MIP Presolve modified 24854 coefficients.
Aggregator did 12967 substitutions.
Reduced MIP has 24970 rows, 21345 columns, and 71246 nonzeros.
Reduced MIP has 8412 binaries, 0 generals, 0 SOSs, and 0 indicators.
Presolve time = 0.28 sec. (173.91 ticks)
Probing fixed 378 vars, tightened 2823 bounds.
Probing time = 1.22 sec. (888.31 ticks)
Tried aggregator 2 times.
MIP Presolve eliminated 858 rows and 759 columns.
MIP Presolve modified 2192 coefficients.
Aggregator did 36 substitutions.
Reduced MIP has 24076 rows, 20550 columns, and 68653 nonzeros.
Reduced MIP has 8033 binaries, 0 generals, 0 SOSs, and 0 indicators.
Presolve time = 0.11 sec. (68.89 ticks)
Probing fixed 4 vars, tightened 8 bounds.
Probing time = 0.19 sec. (118.80 ticks)
Clique table members: 8889.
MIP emphasis: balance optimality and feasibility.
MIP search method: dynamic search.
Parallel mode: opportunistic, using up to 32 threads.
Root relaxation solution time = 0.41 sec. (312.90 ticks)

        Nodes                                         Cuts/
   Node  Left     Objective  IInf  Best Integer    Best Bound    ItCnt     Gap

      0     0    62177.0130  1908                  62177.0130     6993         
      0     0    61905.5297   695                   Cuts: 917     7488         
      0     0    61774.8615   501                   Cuts: 580     7752         
      0     0    61753.5161   424                   Cuts: 260     7876         
      0     0    61753.4734   391                   Cuts: 108     7919         
      0     0    61753.4734   368                    Cuts: 81     7946         
      0     0    61753.4734   362                    Cuts: 53     7962         
      0     0    61753.4734   353                    Cuts: 51     7976         
      0     0    61753.4734   342                    Cuts: 44     7986         
      0     0    61753.4734   338                    Cuts: 38     7992         
      0     0    61753.4734   336                    Cuts: 39     7997         
Repair heuristic found nothing.
      0     7    53026.3902   318                     Cuts: 6     8049         
Elapsed time = 10.88 sec. (6270.93 ticks, tree = 0.02 MB, solutions = 0)
    339    74    61038.5349   311                  61352.1240    11755         
    665   361    52661.1387   302                  61352.1240    16411         
   1204   588    61159.8818   278                  61352.1240    22821         
   1707   805    58918.7330   265                  61352.1240    37414         
   2224  1268    57910.4282   249                  61352.1240    48572         
   2718  1287    57910.4282   231                  61352.1240    48606         
   3398  2077    58783.4511   248                  61352.1240    54049         
   4289  2756    58715.0435   246                  61352.1240    56863         
   5183  3051    58783.4511   204                  61352.1240    57703         
*  7328+ 4245                        56489.9201    61352.1240             8.61%
Elapsed time = 26.44 sec. (8934.17 ticks, tree = 147.82 MB, solutions = 1)
*  8987  5850      integral     0    57909.7261    61352.1240    60468    5.94%
*  9206  6145      integral     0    58911.3604    61352.1240    60644    4.14%

Clique cuts applied:  30
Cover cuts applied:  20
Implied bound cuts applied:  145
Flow cuts applied:  906
Mixed integer rounding cuts applied:  478
Gomory fractional cuts applied:  46

Root node processing (before b&c):
  Real time             =    9.30 sec. (6251.34 ticks)
Parallel b&c, 32 threads:
  Real time             =   23.08 sec. (6203.87 ticks)
  Sync time (average)   =    1.02 sec.
  Wait time (average)   =    0.00 sec.
                          ------------
Total (root+branch&cut) =   32.38 sec. (12455.21 ticks)

Solution pool: 7 solutions saved.

MIP - Integer optimal, tolerance (0.01/1e-06):  Objective =  5.8911360358e+04
Current MIP best bound =  5.9362565801e+04 (gap = 451.205, 0.77%)
Solution time =   32.41 sec.  Iterations = 69774  Nodes = 9211 (756)
Deterministic time = 12455.36 ticks  (384.35 ticks/sec)

CPLEX> Incumbent solution written to file 'C:\Users\llavin\Desktop\test919\logs\tmpu2zx8srb.cplex.sol'.
CPLEX> Exporting results... 
